certificates/rado_a15_c39_N79.drat
-73 -79 0
1 68 11 0
11 -7 0
2 13 0
d 2 4 13 0
-7 -79 0
d -13 -7 -79 0
-79 0
-7 -13 0
-1 2 0
2 0
-11 0
-7 0
73 0
13 0
77 0
-64 0
-22 0
-4 0
-68 0
43 0
1 0
25 0
58 0
70 0
28 0
32 0
47 0
-52 0
-67 0
-19 0
-34 0
0
